p tw 155 32551 2 
1 3 
1 4 
1 5 
1 6 
1 7 
1 8 
1 9 
1 10 
1 11 
1 12 
1 13 
1 14 
1 15 
1 16 
1 17 
1 18 
1 19 
1 20 
1 21 
1 22 
1 23 
1 24 
1 25 
1 26 
1 27 
1 28 
1 29 
1 36 
1 52 
1 62 
1 73 
1 81 
1 92 
1 101 
1 109 
1 117 
1 121 
1 124 
1 131 
1 132 
1 133 
2 3 
2 4 
2 5 
2 6 
2 7 
2 8 
2 9 
2 10 
2 11 
2 12 
2 13 
2 14 
2 15 
2 16 
2 22 
2 30 
2 31 
2 32 
2 33 
2 34 
2 35 
2 36 
2 37 
2 38 
2 39 
2 40 
2 41 
2 42 
2 50 
2 56 
2 78 
2 93 
2 102 
2 108 
2 133 
2 139 
2 145 
2 147 
2 150 
2 153 
2 155 
3 4 
3 5 
3 6 
3 7 
3 8 
3 9 
3 10 
3 11 
3 12 
3 13 
3 14 
3 15 
3 16 
3 28 
3 41 
3 43 
3 44 
3 45 
3 46 
3 47 
3 48 
3 49 
3 50 
3 51 
3 52 
3 53 
3 54 
3 55 
3 62 
3 70 
3 82 
3 88 
3 105 
3 115 
3 130 
3 137 
3 141 
3 144 
3 151 
3 153 
4 5 
4 6 
4 7 
4 8 
4 9 
4 10 
4 11 
4 12 
4 13 
4 14 
4 15 
4 17 
4 27 
4 30 
4 39 
4 43 
4 49 
4 56 
4 57 
4 58 
4 59 
4 60 
4 61 
4 62 
4 63 
4 64 
4 65 
4 66 
4 68 
4 85 
4 96 
4 111 
4 118 
4 127 
4 130 
4 131 
4 149 
4 152 
4 155 
5 6 
5 7 
5 8 
5 9 
5 10 
5 11 
5 12 
5 13 
5 14 
5 15 
5 18 
5 26 
5 31 
5 35 
5 44 
5 51 
5 56 
5 65 
5 67 
5 68 
5 69 
5 70 
5 71 
5 72 
5 73 
5 74 
5 75 
5 76 
5 85 
5 92 
5 104 
5 112 
5 119 
5 123 
5 134 
5 138 
5 144 
5 147 
6 7 
6 8 
6 9 
6 10 
6 11 
6 12 
6 13 
6 14 
6 15 
6 19 
6 25 
6 32 
6 40 
6 43 
6 47 
6 60 
6 67 
6 69 
6 77 
6 78 
6 79 
6 80 
6 81 
6 82 
6 83 
6 84 
6 85 
6 86 
6 91 
6 103 
6 123 
6 132 
6 136 
6 141 
6 146 
6 149 
6 150 
7 8 
7 9 
7 10 
7 11 
7 12 
7 13 
7 14 
7 15 
7 18 
7 20 
7 32 
7 38 
7 45 
7 46 
7 57 
7 64 
7 71 
7 83 
7 87 
7 88 
7 89 
7 90 
7 91 
7 92 
7 93 
7 94 
7 95 
7 96 
7 116 
7 122 
7 131 
7 135 
7 136 
7 137 
7 138 
7 139 
8 9 
8 10 
8 11 
8 12 
8 13 
8 14 
8 15 
8 19 
8 20 
8 30 
8 31 
8 46 
8 47 
8 58 
8 68 
8 77 
8 87 
8 88 
8 97 
8 98 
8 99 
8 100 
8 101 
8 102 
8 103 
8 104 
8 105 
8 106 
8 107 
8 108 
8 109 
8 110 
8 111 
8 112 
8 113 
9 10 
9 11 
9 12 
9 13 
9 14 
9 15 
9 21 
9 29 
9 33 
9 42 
9 48 
9 53 
9 58 
9 61 
9 67 
9 69 
9 78 
9 89 
9 94 
9 97 
9 98 
9 107 
9 114 
9 115 
9 116 
9 117 
9 118 
9 119 
9 132 
9 138 
9 140 
9 151 
9 154 
9 155 
10 11 
10 12 
10 13 
10 14 
10 15 
10 17 
10 22 
10 34 
10 37 
10 49 
10 54 
10 59 
10 70 
10 75 
10 79 
10 84 
10 90 
10 94 
10 98 
10 99 
10 106 
10 111 
10 114 
10 117 
10 120 
10 121 
10 122 
10 123 
10 129 
10 136 
10 143 
10 144 
10 145 
11 12 
11 13 
11 14 
11 15 
11 23 
11 29 
11 35 
11 41 
11 45 
11 50 
11 60 
11 66 
11 71 
11 74 
11 80 
11 81 
11 90 
11 99 
11 103 
11 106 
11 107 
11 115 
11 119 
11 124 
11 125 
11 126 
11 127 
11 129 
11 139 
11 142 
11 148 
11 152 
12 13 
12 14 
12 15 
12 24 
12 28 
12 36 
12 42 
12 48 
12 51 
12 61 
12 64 
12 72 
12 76 
12 80 
12 86 
12 87 
12 91 
12 100 
12 108 
12 113 
12 116 
12 120 
12 121 
12 127 
12 128 
12 129 
12 130 
12 134 
12 142 
12 145 
12 146 
13 14 
13 15 
13 21 
13 25 
13 37 
13 38 
13 44 
13 53 
13 63 
13 65 
13 74 
13 82 
13 86 
13 93 
13 96 
13 101 
13 105 
13 109 
13 110 
13 118 
13 120 
13 122 
13 125 
13 126 
13 128 
13 134 
13 143 
13 148 
13 150 
13 154 
14 15 
14 23 
14 26 
14 39 
14 40 
14 52 
14 55 
14 59 
14 63 
14 75 
14 76 
14 77 
14 83 
14 89 
14 95 
14 100 
14 102 
14 112 
14 114 
14 126 
14 128 
14 133 
14 135 
14 140 
14 141 
14 142 
14 143 
14 151 
14 152 
15 24 
15 27 
15 33 
15 34 
15 54 
15 55 
15 57 
15 66 
15 72 
15 73 
15 79 
15 84 
15 95 
15 97 
15 104 
15 110 
15 113 
15 124 
15 125 
15 135 
15 137 
15 140 
15 146 
15 147 
15 148 
15 149 
15 153 
15 154 
16 17 
16 18 
16 19 
16 20 
16 21 
16 22 
16 23 
16 24 
16 25 
16 26 
16 27 
16 28 
16 29 
16 30 
16 31 
16 32 
16 33 
16 34 
16 35 
16 36 
16 37 
16 38 
16 39 
16 40 
16 41 
16 42 
16 43 
16 44 
16 45 
16 46 
16 47 
16 48 
16 49 
16 50 
16 51 
16 52 
16 53 
16 54 
16 55 
17 18 
17 19 
17 20 
17 21 
17 22 
17 23 
17 24 
17 25 
17 26 
17 27 
17 28 
17 29 
17 30 
17 37 
17 43 
17 54 
17 56 
17 57 
17 58 
17 59 
17 60 
17 61 
17 62 
17 63 
17 64 
17 65 
17 66 
17 75 
17 84 
17 94 
17 99 
17 111 
17 117 
17 129 
17 136 
17 143 
17 144 
17 145 
18 19 
18 20 
18 21 
18 22 
18 23 
18 24 
18 25 
18 26 
18 27 
18 28 
18 29 
18 31 
18 32 
18 44 
18 45 
18 56 
18 57 
18 67 
18 68 
18 69 
18 70 
18 71 
18 72 
18 73 
18 74 
18 75 
18 76 
18 87 
18 88 
18 89 
18 90 
18 91 
18 92 
18 93 
18 94 
18 95 
18 96 
19 20 
19 21 
19 22 
19 23 
19 24 
19 25 
19 26 
19 27 
19 28 
19 29 
19 30 
19 32 
19 43 
19 46 
19 67 
19 68 
19 77 
19 78 
19 79 
19 80 
19 81 
19 82 
19 83 
19 84 
19 85 
19 86 
19 87 
19 97 
19 98 
19 99 
19 100 
19 101 
19 102 
19 103 
19 104 
19 105 
20 21 
20 22 
20 23 
20 24 
20 25 
20 26 
20 27 
20 28 
20 29 
20 31 
20 38 
20 46 
20 47 
20 58 
20 64 
20 71 
20 77 
20 83 
20 88 
20 106 
20 107 
20 108 
20 109 
20 110 
20 111 
20 112 
20 113 
20 116 
20 122 
20 131 
20 135 
20 136 
20 137 
20 138 
20 139 
21 22 
21 23 
21 24 
21 25 
21 26 
21 27 
21 28 
21 29 
21 33 
21 38 
21 44 
21 48 
21 58 
21 65 
21 69 
21 78 
21 86 
21 89 
21 96 
21 97 
21 105 
21 109 
21 114 
21 115 
21 116 
21 117 
21 118 
21 119 
21 120 
21 126 
21 143 
21 148 
21 150 
21 154 
22 23 
22 24 
22 25 
22 26 
22 27 
22 28 
22 29 
22 34 
22 49 
22 50 
22 56 
22 59 
22 70 
22 78 
22 79 
22 90 
22 93 
22 98 
22 102 
22 106 
22 108 
22 114 
22 120 
22 121 
22 122 
22 123 
22 133 
22 139 
22 145 
22 147 
22 150 
22 153 
22 155 
23 24 
23 25 
23 26 
23 27 
23 28 
23 29 
23 35 
23 40 
23 50 
23 55 
23 60 
23 63 
23 71 
23 76 
23 80 
23 83 
23 90 
23 95 
23 99 
23 100 
23 107 
23 112 
23 114 
23 115 
23 124 
23 125 
23 126 
23 127 
23 133 
23 143 
23 151 
23 152 
24 25 
24 26 
24 27 
24 28 
24 29 
24 33 
24 36 
24 51 
24 54 
24 61 
24 66 
24 72 
24 73 
24 79 
24 80 
24 91 
24 95 
24 100 
24 104 
24 108 
24 113 
24 116 
24 120 
24 125 
24 128 
24 129 
24 130 
24 135 
24 149 
24 153 
24 154 
25 26 
25 27 
25 28 
25 29 
25 37 
25 40 
25 47 
25 53 
25 60 
25 63 
25 69 
25 74 
25 82 
25 91 
25 93 
25 101 
25 103 
25 110 
25 118 
25 122 
25 123 
25 125 
25 128 
25 132 
25 134 
25 136 
25 141 
25 146 
25 149 
25 150 
26 27 
26 28 
26 29 
26 35 
26 39 
26 51 
26 52 
26 59 
26 65 
26 75 
26 77 
26 85 
26 89 
26 92 
26 102 
26 104 
26 112 
26 119 
26 123 
26 126 
26 128 
26 134 
26 135 
26 138 
26 140 
26 141 
26 142 
26 144 
26 147 
27 28 
27 29 
27 34 
27 39 
27 49 
27 55 
27 57 
27 68 
27 72 
27 84 
27 85 
27 96 
27 97 
27 110 
27 111 
27 118 
27 124 
27 127 
27 130 
27 131 
27 137 
27 140 
27 146 
27 147 
27 148 
27 149 
27 152 
27 155 
28 29 
28 41 
28 42 
28 48 
28 62 
28 64 
28 70 
28 76 
28 82 
28 86 
28 87 
28 88 
28 105 
28 113 
28 115 
28 121 
28 127 
28 130 
28 134 
28 137 
28 141 
28 142 
28 144 
28 145 
28 146 
28 151 
28 153 
29 41 
29 42 
29 45 
29 53 
29 61 
29 66 
29 67 
29 74 
29 81 
29 94 
29 98 
29 103 
29 106 
29 107 
29 119 
29 129 
29 132 
29 138 
29 139 
29 140 
29 142 
29 148 
29 151 
29 152 
29 154 
29 155 
30 31 
30 32 
30 33 
30 34 
30 35 
30 36 
30 37 
30 38 
30 39 
30 40 
30 41 
30 42 
30 43 
30 46 
30 56 
30 57 
30 58 
30 59 
30 60 
30 61 
30 62 
30 63 
30 64 
30 65 
30 66 
30 68 
30 87 
30 97 
30 98 
30 99 
30 100 
30 101 
30 102 
30 103 
30 104 
30 105 
31 32 
31 33 
31 34 
31 35 
31 36 
31 37 
31 38 
31 39 
31 40 
31 41 
31 42 
31 44 
31 47 
31 56 
31 58 
31 67 
31 68 
31 69 
31 70 
31 71 
31 72 
31 73 
31 74 
31 75 
31 76 
31 77 
31 88 
31 106 
31 107 
31 108 
31 109 
31 110 
31 111 
31 112 
31 113 
32 33 
32 34 
32 35 
32 36 
32 37 
32 38 
32 39 
32 40 
32 41 
32 42 
32 43 
32 45 
32 57 
32 67 
32 77 
32 78 
32 79 
32 80 
32 81 
32 82 
32 83 
32 84 
32 85 
32 86 
32 87 
32 88 
32 89 
32 90 
32 91 
32 92 
32 93 
32 94 
32 95 
32 96 
33 34 
33 35 
33 36 
33 37 
33 38 
33 39 
33 40 
33 41 
33 42 
33 48 
33 54 
33 58 
33 66 
33 69 
33 73 
33 78 
33 79 
33 89 
33 95 
33 97 
33 104 
33 113 
33 114 
33 115 
33 116 
33 117 
33 118 
33 119 
33 125 
33 135 
33 149 
33 153 
33 154 
34 35 
34 36 
34 37 
34 38 
34 39 
34 40 
34 41 
34 42 
34 49 
34 55 
34 57 
34 59 
34 70 
34 72 
34 79 
34 84 
34 90 
34 97 
34 98 
34 106 
34 110 
34 114 
34 120 
34 121 
34 122 
34 123 
34 124 
34 137 
34 140 
34 146 
34 147 
34 148 
35 36 
35 37 
35 38 
35 39 
35 40 
35 41 
35 42 
35 50 
35 51 
35 60 
35 65 
35 71 
35 80 
35 85 
35 90 
35 92 
35 99 
35 104 
35 107 
35 112 
35 115 
35 119 
35 123 
35 124 
35 125 
35 126 
35 127 
35 134 
35 138 
35 144 
35 147 
36 37 
36 38 
36 39 
36 40 
36 41 
36 42 
36 51 
36 52 
36 61 
36 62 
36 72 
36 73 
36 80 
36 81 
36 91 
36 92 
36 100 
36 101 
36 108 
36 109 
36 116 
36 117 
36 120 
36 121 
36 124 
36 128 
36 129 
36 130 
36 131 
36 132 
36 133 
37 38 
37 39 
37 40 
37 41 
37 42 
37 53 
37 54 
37 63 
37 74 
37 75 
37 82 
37 84 
37 93 
37 94 
37 99 
37 101 
37 110 
37 111 
37 117 
37 118 
37 122 
37 125 
37 128 
37 129 
37 134 
37 136 
37 143 
37 144 
37 145 
38 39 
38 40 
38 41 
38 42 
38 44 
38 46 
38 64 
38 65 
38 71 
38 83 
38 86 
38 96 
38 105 
38 109 
38 116 
38 120 
38 122 
38 126 
38 131 
38 135 
38 136 
38 137 
38 138 
38 139 
38 143 
38 148 
38 150 
38 154 
39 40 
39 41 
39 42 
39 49 
39 52 
39 59 
39 68 
39 75 
39 77 
39 85 
39 89 
39 96 
39 102 
39 111 
39 118 
39 126 
39 127 
39 128 
39 130 
39 131 
39 135 
39 140 
39 141 
39 142 
39 149 
39 152 
39 155 
40 41 
40 42 
40 47 
40 55 
40 60 
40 63 
40 69 
40 76 
40 83 
40 91 
40 95 
40 100 
40 103 
40 112 
40 114 
40 123 
40 132 
40 133 
40 136 
40 141 
40 143 
40 146 
40 149 
40 150 
40 151 
40 152 
41 42 
41 45 
41 62 
41 66 
41 70 
41 74 
41 81 
41 82 
41 88 
41 103 
41 105 
41 106 
41 115 
41 119 
41 129 
41 130 
41 137 
41 139 
41 141 
41 142 
41 144 
41 148 
41 151 
41 152 
41 153 
42 48 
42 53 
42 61 
42 64 
42 67 
42 76 
42 86 
42 87 
42 94 
42 98 
42 107 
42 113 
42 121 
42 127 
42 132 
42 134 
42 138 
42 140 
42 142 
42 145 
42 146 
42 151 
42 154 
42 155 
43 44 
43 45 
43 46 
43 47 
43 48 
43 49 
43 50 
43 51 
43 52 
43 53 
43 54 
43 55 
43 56 
43 57 
43 58 
43 59 
43 60 
43 61 
43 62 
43 63 
43 64 
43 65 
43 66 
43 67 
43 77 
43 78 
43 79 
43 80 
43 81 
43 82 
43 83 
43 84 
43 85 
43 86 
44 45 
44 46 
44 47 
44 48 
44 49 
44 50 
44 51 
44 52 
44 53 
44 54 
44 55 
44 56 
44 65 
44 67 
44 68 
44 69 
44 70 
44 71 
44 72 
44 73 
44 74 
44 75 
44 76 
44 86 
44 96 
44 105 
44 109 
44 120 
44 126 
44 143 
44 148 
44 150 
44 154 
45 46 
45 47 
45 48 
45 49 
45 50 
45 51 
45 52 
45 53 
45 54 
45 55 
45 57 
45 66 
45 74 
45 81 
45 87 
45 88 
45 89 
45 90 
45 91 
45 92 
45 93 
45 94 
45 95 
45 96 
45 103 
45 106 
45 119 
45 129 
45 139 
45 142 
45 148 
45 152 
46 47 
46 48 
46 49 
46 50 
46 51 
46 52 
46 53 
46 54 
46 55 
46 64 
46 68 
46 71 
46 83 
46 87 
46 97 
46 98 
46 99 
46 100 
46 101 
46 102 
46 103 
46 104 
46 105 
46 116 
46 122 
46 131 
46 135 
46 136 
46 137 
46 138 
46 139 
47 48 
47 49 
47 50 
47 51 
47 52 
47 53 
47 54 
47 55 
47 58 
47 60 
47 69 
47 77 
47 88 
47 91 
47 103 
47 106 
47 107 
47 108 
47 109 
47 110 
47 111 
47 112 
47 113 
47 123 
47 132 
47 136 
47 141 
47 146 
47 149 
47 150 
48 49 
48 50 
48 51 
48 52 
48 53 
48 54 
48 55 
48 58 
48 64 
48 69 
48 76 
48 78 
48 86 
48 87 
48 89 
48 97 
48 113 
48 114 
48 115 
48 116 
48 117 
48 118 
48 119 
48 121 
48 127 
48 134 
48 142 
48 145 
48 146 
49 50 
49 51 
49 52 
49 53 
49 54 
49 55 
49 59 
49 68 
49 70 
49 79 
49 85 
49 90 
49 96 
49 98 
49 106 
49 111 
49 114 
49 118 
49 120 
49 121 
49 122 
49 123 
49 127 
49 130 
49 131 
49 149 
49 152 
49 155 
50 51 
50 52 
50 53 
50 54 
50 55 
50 56 
50 60 
50 71 
50 78 
50 80 
50 90 
50 93 
50 99 
50 102 
50 107 
50 108 
50 115 
50 124 
50 125 
50 126 
50 127 
50 133 
50 139 
50 145 
50 147 
50 150 
50 153 
50 155 
51 52 
51 53 
51 54 
51 55 
51 61 
51 65 
51 72 
51 80 
51 85 
51 91 
51 92 
51 100 
51 104 
51 108 
51 112 
51 116 
51 119 
51 120 
51 123 
51 128 
51 129 
51 130 
51 134 
51 138 
51 144 
51 147 
52 53 
52 54 
52 55 
52 59 
52 62 
52 73 
52 75 
52 77 
52 81 
52 89 
52 92 
52 101 
52 102 
52 109 
52 117 
52 121 
52 124 
52 126 
52 128 
52 131 
52 132 
52 133 
52 135 
52 140 
52 141 
52 142 
53 54 
53 55 
53 61 
53 63 
53 67 
53 74 
53 82 
53 93 
53 94 
53 98 
53 101 
53 107 
53 110 
53 118 
53 122 
53 125 
53 128 
53 132 
53 134 
53 138 
53 140 
53 151 
53 154 
53 155 
54 55 
54 66 
54 73 
54 75 
54 79 
54 84 
54 94 
54 95 
54 99 
54 104 
54 111 
54 113 
54 117 
54 125 
54 129 
54 135 
54 136 
54 143 
54 144 
54 145 
54 149 
54 153 
54 154 
55 57 
55 63 
55 72 
55 76 
55 83 
55 84 
55 95 
55 97 
55 100 
55 110 
55 112 
55 114 
55 124 
55 133 
55 137 
55 140 
55 143 
55 146 
55 147 
55 148 
55 151 
55 152 
56 57 
56 58 
56 59 
56 60 
56 61 
56 62 
56 63 
56 64 
56 65 
56 66 
56 67 
56 68 
56 69 
56 70 
56 71 
56 72 
56 73 
56 74 
56 75 
56 76 
56 78 
56 93 
56 102 
56 108 
56 133 
56 139 
56 145 
56 147 
56 150 
56 153 
56 155 
57 58 
57 59 
57 60 
57 61 
57 62 
57 63 
57 64 
57 65 
57 66 
57 72 
57 84 
57 87 
57 88 
57 89 
57 90 
57 91 
57 92 
57 93 
57 94 
57 95 
57 96 
57 97 
57 110 
57 124 
57 137 
57 140 
57 146 
57 147 
57 148 
58 59 
58 60 
58 61 
58 62 
58 63 
58 64 
58 65 
58 66 
58 69 
58 77 
58 78 
58 88 
58 89 
58 97 
58 106 
58 107 
58 108 
58 109 
58 110 
58 111 
58 112 
58 113 
58 114 
58 115 
58 116 
58 117 
58 118 
58 119 
59 60 
59 61 
59 62 
59 63 
59 64 
59 65 
59 66 
59 70 
59 75 
59 77 
59 79 
59 89 
59 90 
59 98 
59 102 
59 106 
59 114 
59 120 
59 121 
59 122 
59 123 
59 126 
59 128 
59 135 
59 140 
59 141 
59 142 
60 61 
60 62 
60 63 
60 64 
60 65 
60 66 
60 69 
60 71 
60 80 
60 90 
60 91 
60 99 
60 103 
60 107 
60 115 
60 123 
60 124 
60 125 
60 126 
60 127 
60 132 
60 136 
60 141 
60 146 
60 149 
60 150 
61 62 
61 63 
61 64 
61 65 
61 66 
61 67 
61 72 
61 80 
61 91 
61 94 
61 98 
61 100 
61 107 
61 108 
61 116 
61 120 
61 128 
61 129 
61 130 
61 132 
61 138 
61 140 
61 151 
61 154 
61 155 
62 63 
62 64 
62 65 
62 66 
62 70 
62 73 
62 81 
62 82 
62 88 
62 92 
62 101 
62 105 
62 109 
62 115 
62 117 
62 121 
62 124 
62 130 
62 131 
62 132 
62 133 
62 137 
62 141 
62 144 
62 151 
62 153 
63 64 
63 65 
63 66 
63 74 
63 76 
63 82 
63 83 
63 93 
63 95 
63 100 
63 101 
63 110 
63 112 
63 114 
63 118 
63 122 
63 125 
63 128 
63 133 
63 134 
63 143 
63 151 
63 152 
64 65 
64 66 
64 71 
64 76 
64 83 
64 86 
64 87 
64 113 
64 116 
64 121 
64 122 
64 127 
64 131 
64 134 
64 135 
64 136 
64 137 
64 138 
64 139 
64 142 
64 145 
64 146 
65 66 
65 85 
65 86 
65 92 
65 96 
65 104 
65 105 
65 109 
65 112 
65 119 
65 120 
65 123 
65 126 
65 134 
65 138 
65 143 
65 144 
65 147 
65 148 
65 150 
65 154 
66 73 
66 74 
66 79 
66 81 
66 95 
66 103 
66 104 
66 106 
66 113 
66 119 
66 125 
66 129 
66 135 
66 139 
66 142 
66 148 
66 149 
66 152 
66 153 
66 154 
67 68 
67 69 
67 70 
67 71 
67 72 
67 73 
67 74 
67 75 
67 76 
67 77 
67 78 
67 79 
67 80 
67 81 
67 82 
67 83 
67 84 
67 85 
67 86 
67 94 
67 98 
67 107 
67 132 
67 138 
67 140 
67 151 
67 154 
67 155 
68 69 
68 70 
68 71 
68 72 
68 73 
68 74 
68 75 
68 76 
68 85 
68 87 
68 96 
68 97 
68 98 
68 99 
68 100 
68 101 
68 102 
68 103 
68 104 
68 105 
68 111 
68 118 
68 127 
68 130 
68 131 
68 149 
68 152 
68 155 
69 70 
69 71 
69 72 
69 73 
69 74 
69 75 
69 76 
69 78 
69 89 
69 91 
69 97 
69 103 
69 114 
69 115 
69 116 
69 117 
69 118 
69 119 
69 123 
69 132 
69 136 
69 141 
69 146 
69 149 
69 150 
70 71 
70 72 
70 73 
70 74 
70 75 
70 76 
70 79 
70 82 
70 88 
70 90 
70 98 
70 105 
70 106 
70 114 
70 115 
70 120 
70 121 
70 122 
70 123 
70 130 
70 137 
70 141 
70 144 
70 151 
70 153 
71 72 
71 73 
71 74 
71 75 
71 76 
71 80 
71 83 
71 90 
71 99 
71 107 
71 115 
71 116 
71 122 
71 124 
71 125 
71 126 
71 127 
71 131 
71 135 
71 136 
71 137 
71 138 
71 139 
72 73 
72 74 
72 75 
72 76 
72 80 
72 84 
72 91 
72 97 
72 100 
72 108 
72 110 
72 116 
72 120 
72 124 
72 128 
72 129 
72 130 
72 137 
72 140 
72 146 
72 147 
72 148 
73 74 
73 75 
73 76 
73 79 
73 81 
73 92 
73 95 
73 101 
73 104 
73 109 
73 113 
73 117 
73 121 
73 124 
73 125 
73 131 
73 132 
73 133 
73 135 
73 149 
73 153 
73 154 
74 75 
74 76 
74 81 
74 82 
74 93 
74 101 
74 103 
74 106 
74 110 
74 118 
74 119 
74 122 
74 125 
74 128 
74 129 
74 134 
74 139 
74 142 
74 148 
74 152 
75 76 
75 77 
75 84 
75 89 
75 94 
75 99 
75 102 
75 111 
75 117 
75 126 
75 128 
75 129 
75 135 
75 136 
75 140 
75 141 
75 142 
75 143 
75 144 
75 145 
76 83 
76 86 
76 87 
76 95 
76 100 
76 112 
76 113 
76 114 
76 121 
76 127 
76 133 
76 134 
76 142 
76 143 
76 145 
76 146 
76 151 
76 152 
77 78 
77 79 
77 80 
77 81 
77 82 
77 83 
77 84 
77 85 
77 86 
77 88 
77 89 
77 102 
77 106 
77 107 
77 108 
77 109 
77 110 
77 111 
77 112 
77 113 
77 126 
77 128 
77 135 
77 140 
77 141 
77 142 
78 79 
78 80 
78 81 
78 82 
78 83 
78 84 
78 85 
78 86 
78 89 
78 93 
78 97 
78 102 
78 108 
78 114 
78 115 
78 116 
78 117 
78 118 
78 119 
78 133 
78 139 
78 145 
78 147 
78 150 
78 153 
78 155 
79 80 
79 81 
79 82 
79 83 
79 84 
79 85 
79 86 
79 90 
79 95 
79 98 
79 104 
79 106 
79 113 
79 114 
79 120 
79 121 
79 122 
79 123 
79 125 
79 135 
79 149 
79 153 
79 154 
80 81 
80 82 
80 83 
80 84 
80 85 
80 86 
80 90 
80 91 
80 99 
80 100 
80 107 
80 108 
80 115 
80 116 
80 120 
80 124 
80 125 
80 126 
80 127 
80 128 
80 129 
80 130 
81 82 
81 83 
81 84 
81 85 
81 86 
81 92 
81 101 
81 103 
81 106 
81 109 
81 117 
81 119 
81 121 
81 124 
81 129 
81 131 
81 132 
81 133 
81 139 
81 142 
81 148 
81 152 
82 83 
82 84 
82 85 
82 86 
82 88 
82 93 
82 101 
82 105 
82 110 
82 115 
82 118 
82 122 
82 125 
82 128 
82 130 
82 134 
82 137 
82 141 
82 144 
82 151 
82 153 
83 84 
83 85 
83 86 
83 95 
83 100 
83 112 
83 114 
83 116 
83 122 
83 131 
83 133 
83 135 
83 136 
83 137 
83 138 
83 139 
83 143 
83 151 
83 152 
84 85 
84 86 
84 94 
84 97 
84 99 
84 110 
84 111 
84 117 
84 124 
84 129 
84 136 
84 137 
84 140 
84 143 
84 144 
84 145 
84 146 
84 147 
84 148 
85 86 
85 92 
85 96 
85 104 
85 111 
85 112 
85 118 
85 119 
85 123 
85 127 
85 130 
85 131 
85 134 
85 138 
85 144 
85 147 
85 149 
85 152 
85 155 
86 87 
86 96 
86 105 
86 109 
86 113 
86 120 
86 121 
86 126 
86 127 
86 134 
86 142 
86 143 
86 145 
86 146 
86 148 
86 150 
86 154 
87 88 
87 89 
87 90 
87 91 
87 92 
87 93 
87 94 
87 95 
87 96 
87 97 
87 98 
87 99 
87 100 
87 101 
87 102 
87 103 
87 104 
87 105 
87 113 
87 121 
87 127 
87 134 
87 142 
87 145 
87 146 
88 89 
88 90 
88 91 
88 92 
88 93 
88 94 
88 95 
88 96 
88 105 
88 106 
88 107 
88 108 
88 109 
88 110 
88 111 
88 112 
88 113 
88 115 
88 130 
88 137 
88 141 
88 144 
88 151 
88 153 
89 90 
89 91 
89 92 
89 93 
89 94 
89 95 
89 96 
89 97 
89 102 
89 114 
89 115 
89 116 
89 117 
89 118 
89 119 
89 126 
89 128 
89 135 
89 140 
89 141 
89 142 
90 91 
90 92 
90 93 
90 94 
90 95 
90 96 
90 98 
90 99 
90 106 
90 107 
90 114 
90 115 
90 120 
90 121 
90 122 
90 123 
90 124 
90 125 
90 126 
90 127 
91 92 
91 93 
91 94 
91 95 
91 96 
91 100 
91 103 
91 108 
91 116 
91 120 
91 123 
91 128 
91 129 
91 130 
91 132 
91 136 
91 141 
91 146 
91 149 
91 150 
92 93 
92 94 
92 95 
92 96 
92 101 
92 104 
92 109 
92 112 
92 117 
92 119 
92 121 
92 123 
92 124 
92 131 
92 132 
92 133 
92 134 
92 138 
92 144 
92 147 
93 94 
93 95 
93 96 
93 101 
93 102 
93 108 
93 110 
93 118 
93 122 
93 125 
93 128 
93 133 
93 134 
93 139 
93 145 
93 147 
93 150 
93 153 
93 155 
94 95 
94 96 
94 98 
94 99 
94 107 
94 111 
94 117 
94 129 
94 132 
94 136 
94 138 
94 140 
94 143 
94 144 
94 145 
94 151 
94 154 
94 155 
95 96 
95 100 
95 104 
95 112 
95 113 
95 114 
95 125 
95 133 
95 135 
95 143 
95 149 
95 151 
95 152 
95 153 
95 154 
96 105 
96 109 
96 111 
96 118 
96 120 
96 126 
96 127 
96 130 
96 131 
96 143 
96 148 
96 149 
96 150 
96 152 
96 154 
96 155 
97 98 
97 99 
97 100 
97 101 
97 102 
97 103 
97 104 
97 105 
97 110 
97 114 
97 115 
97 116 
97 117 
97 118 
97 119 
97 124 
97 137 
97 140 
97 146 
97 147 
97 148 
98 99 
98 100 
98 101 
98 102 
98 103 
98 104 
98 105 
98 106 
98 107 
98 114 
98 120 
98 121 
98 122 
98 123 
98 132 
98 138 
98 140 
98 151 
98 154 
98 155 
99 100 
99 101 
99 102 
99 103 
99 104 
99 105 
99 107 
99 111 
99 115 
99 117 
99 124 
99 125 
99 126 
99 127 
99 129 
99 136 
99 143 
99 144 
99 145 
100 101 
100 102 
100 103 
100 104 
100 105 
100 108 
100 112 
100 114 
100 116 
100 120 
100 128 
100 129 
100 130 
100 133 
100 143 
100 151 
100 152 
101 102 
101 103 
101 104 
101 105 
101 109 
101 110 
101 117 
101 118 
101 121 
101 122 
101 124 
101 125 
101 128 
101 131 
101 132 
101 133 
101 134 
102 103 
102 104 
102 105 
102 108 
102 126 
102 128 
102 133 
102 135 
102 139 
102 140 
102 141 
102 142 
102 145 
102 147 
102 150 
102 153 
102 155 
103 104 
103 105 
103 106 
103 119 
103 123 
103 129 
103 132 
103 136 
103 139 
103 141 
103 142 
103 146 
103 148 
103 149 
103 150 
103 152 
104 105 
104 112 
104 113 
104 119 
104 123 
104 125 
104 134 
104 135 
104 138 
104 144 
104 147 
104 149 
104 153 
104 154 
105 109 
105 115 
105 120 
105 126 
105 130 
105 137 
105 141 
105 143 
105 144 
105 148 
105 150 
105 151 
105 153 
105 154 
106 107 
106 108 
106 109 
106 110 
106 111 
106 112 
106 113 
106 114 
106 119 
106 120 
106 121 
106 122 
106 123 
106 129 
106 139 
106 142 
106 148 
106 152 
107 108 
107 109 
107 110 
107 111 
107 112 
107 113 
107 115 
107 124 
107 125 
107 126 
107 127 
107 132 
107 138 
107 140 
107 151 
107 154 
107 155 
108 109 
108 110 
108 111 
108 112 
108 113 
108 116 
108 120 
108 128 
108 129 
108 130 
108 133 
108 139 
108 145 
108 147 
108 150 
108 153 
108 155 
109 110 
109 111 
109 112 
109 113 
109 117 
109 120 
109 121 
109 124 
109 126 
109 131 
109 132 
109 133 
109 143 
109 148 
109 150 
109 154 
110 111 
110 112 
110 113 
110 118 
110 122 
110 124 
110 125 
110 128 
110 134 
110 137 
110 140 
110 146 
110 147 
110 148 
111 112 
111 113 
111 117 
111 118 
111 127 
111 129 
111 130 
111 131 
111 136 
111 143 
111 144 
111 145 
111 149 
111 152 
111 155 
112 113 
112 114 
112 119 
112 123 
112 133 
112 134 
112 138 
112 143 
112 144 
112 147 
112 151 
112 152 
113 121 
113 125 
113 127 
113 134 
113 135 
113 142 
113 145 
113 146 
113 149 
113 153 
113 154 
114 115 
114 116 
114 117 
114 118 
114 119 
114 120 
114 121 
114 122 
114 123 
114 133 
114 143 
114 151 
114 152 
115 116 
115 117 
115 118 
115 119 
115 124 
115 125 
115 126 
115 127 
115 130 
115 137 
115 141 
115 144 
115 151 
115 153 
116 117 
116 118 
116 119 
116 120 
116 122 
116 128 
116 129 
116 130 
116 131 
116 135 
116 136 
116 137 
116 138 
116 139 
117 118 
117 119 
117 121 
117 124 
117 129 
117 131 
117 132 
117 133 
117 136 
117 143 
117 144 
117 145 
118 119 
118 122 
118 125 
118 127 
118 128 
118 130 
118 131 
118 134 
118 149 
118 152 
118 155 
119 123 
119 129 
119 134 
119 138 
119 139 
119 142 
119 144 
119 147 
119 148 
119 152 
120 121 
120 122 
120 123 
120 126 
120 128 
120 129 
120 130 
120 143 
120 148 
120 150 
120 154 
121 122 
121 123 
121 124 
121 127 
121 131 
121 132 
121 133 
121 134 
121 142 
121 145 
121 146 
122 123 
122 125 
122 128 
122 131 
122 134 
122 135 
122 136 
122 137 
122 138 
122 139 
123 132 
123 134 
123 136 
123 138 
123 141 
123 144 
123 146 
123 147 
123 149 
123 150 
124 125 
124 126 
124 127 
124 131 
124 132 
124 133 
124 137 
124 140 
124 146 
124 147 
124 148 
125 126 
125 127 
125 128 
125 134 
125 135 
125 149 
125 153 
125 154 
126 127 
126 128 
126 135 
126 140 
126 141 
126 142 
126 143 
126 148 
126 150 
126 154 
127 130 
127 131 
127 134 
127 142 
127 145 
127 146 
127 149 
127 152 
127 155 
128 129 
128 130 
128 134 
128 135 
128 140 
128 141 
128 142 
129 130 
129 136 
129 139 
129 142 
129 143 
129 144 
129 145 
129 148 
129 152 
130 131 
130 137 
130 141 
130 144 
130 149 
130 151 
130 152 
130 153 
130 155 
131 132 
131 133 
131 135 
131 136 
131 137 
131 138 
131 139 
131 149 
131 152 
131 155 
132 133 
132 136 
132 138 
132 140 
132 141 
132 146 
132 149 
132 150 
132 151 
132 154 
132 155 
133 139 
133 143 
133 145 
133 147 
133 150 
133 151 
133 152 
133 153 
133 155 
134 138 
134 142 
134 144 
134 145 
134 146 
134 147 
135 136 
135 137 
135 138 
135 139 
135 140 
135 141 
135 142 
135 149 
135 153 
135 154 
136 137 
136 138 
136 139 
136 141 
136 143 
136 144 
136 145 
136 146 
136 149 
136 150 
137 138 
137 139 
137 140 
137 141 
137 144 
137 146 
137 147 
137 148 
137 151 
137 153 
138 139 
138 140 
138 144 
138 147 
138 151 
138 154 
138 155 
139 142 
139 145 
139 147 
139 148 
139 150 
139 152 
139 153 
139 155 
140 141 
140 142 
140 146 
140 147 
140 148 
140 151 
140 154 
140 155 
141 142 
141 144 
141 146 
141 149 
141 150 
141 151 
141 153 
142 145 
142 146 
142 148 
142 152 
143 144 
143 145 
143 148 
143 150 
143 151 
143 152 
143 154 
144 145 
144 147 
144 151 
144 153 
145 146 
145 147 
145 150 
145 153 
145 155 
146 147 
146 148 
146 149 
146 150 
147 148 
147 150 
147 153 
147 155 
148 150 
148 152 
148 154 
149 150 
149 152 
149 153 
149 154 
149 155 
150 153 
150 154 
150 155 
151 152 
151 153 
151 154 
151 155 
152 155 
153 154 
153 155 
154 155 
